Route #1: 67 34 52 54 19 59 14 35 8 46
Route #2: 7 53 11 66 65 38 10 31 58
Route #3: 26 12 72 39 9 25 55 18 50 32 44 40
Route #4: 17 3 24 49 23 56 41 64 42 43 63 16 51
Route #5: 6 33 73 1 22 62 28 61 21 74 2 68
Route #6: 30 48 47 36 69 71 60 70 20 37 5 15 57 13 27
Route #7: 29 45 4 75
Cost 702